
%FILE DATA:	Soccer Computational Problem for MiniZinc Models	%
%AUTHOR:	Jack Wall	%
%CONTACT:  	116397063@umail.ucc.ie			%
%LAST UPDATE:	03/09/2020, 15:15:29						%
%DESCRIPTION: 	120 games played with 12 games left				%


n=12; %number of teams

%Games to play
games=[|5,10|1,9|12,1|8,9|3,5|5,8|1,7|10,9|3,1|3,11|7,11|6,5|];

%Initial points
iPoints=[22,36,21,33,24,32,27,18,32,26,20,29];

%POSITION CONSTRAINTS
% [|teamID, operator, position|...]
% operators index:
%  1 for =  operator
%  2 for >  operator
%  3 for >= operator
%  4 for <  operator
%  5 for <= operator
positionConstraints=[|9,4,2|2,5,2|6,1,3|];